Optimal - objective value -2954.00000000
     14 x_14                   1                       0
     19 x_19                   1                       0
     66 x_66                   1                      10
     72 x_72                   1         -19.9342105263158
    140 x_140                  1                       0
    203 x_203                  1         11.7236842105263
    345 x_345                  1                       0
    361 x_361                  1                       0
    366 x_366                  1                       0
    417 x_417                  1                       0
    503 x_503                  1         39.2763157894737
    540 x_540                  1                       0
    548 x_548                  1                       0
    553 x_553                  1                       0
    554 x_554                  1                     -18
    574 x_574                  1                       0
    611 x_611                  1         -64.9736842105263
    617 x_617                  1                       0
    674 x_674                  1                       0
    739 x_739                  1         -61.1710526315789
    747 x_747                  1         52.4473684210526
    765 x_765                  1         16.7236842105263
    823 x_823                  1                       0
    843 x_843                  1                       0
    884 x_884                  1                       0
    961 x_961                  1         21.6184210526316
   1004 x_1004                 1                       0
   1036 x_1036                 1                      66
   1041 x_1041                 1                       0
   1085 x_1085                 1                       0
   1123 x_1123                 1                       0
   1181 x_1181                 1                       0
   1217 x_1217                 1                       0
   1264 x_1264                 1                       0
   1266 x_1266                 1         -28.4605263157895
   1269 x_1269                 1                       0
   1281 x_1281                 1                       0
   1348 x_1348                 1                       0
   1437 x_1437                 1                       0
   1584 x_1584                 1                       0
   1624 x_1624                 1                       3
   1681 x_1681                 1                     -56
   1791 x_1791                 1         74.6578947368421
   1798 x_1798                 1                     -54
